TCS_Benchmarks/redos_fix/snort3_output_distinct_4031_4030_105_0.txt
([^>]*)(\s*)
([^>]*)([vV][aA][lL][uU][eE])(\s*)